p edge 129 1027
v 1 465
v 2 478
v 3 653
v 4 362
v 5 354
v 6 690
v 7 674
v 8 419
v 9 393
v 10 512
v 11 397
v 12 236
v 13 335
v 14 462
v 15 565
v 16 618
v 17 443
v 18 675
v 19 364
v 20 701
v 21 562
v 22 245
v 23 218
v 24 580
v 25 645
v 26 687
v 27 640
v 28 599
v 29 300
v 30 394
v 31 376
v 32 517
v 33 378
v 34 475
v 35 510
v 36 251
v 37 694
v 38 542
v 39 691
v 40 324
v 41 660
v 42 633
v 43 261
v 44 600
v 45 449
v 46 376
v 47 238
v 48 404
v 49 487
v 50 459
v 51 649
v 52 463
v 53 247
v 54 688
v 55 546
v 56 622
v 57 268
v 58 538
v 59 594
v 60 474
v 61 506
v 62 305
v 63 657
v 64 261
v 65 516
v 66 454
v 67 640
v 68 424
v 69 603
v 70 697
v 71 407
v 72 459
v 73 250
v 74 312
v 75 631
v 76 233
v 77 418
v 78 551
v 79 220
v 80 433
v 81 688
v 82 697
v 83 263
v 84 451
v 85 437
v 86 574
v 87 636
v 88 313
v 89 609
v 90 672
v 91 470
v 92 439
v 93 213
v 94 493
v 95 697
v 96 240
v 97 283
v 98 313
v 99 293
v 100 510
v 101 594
v 102 611
v 103 700
v 104 598
v 105 452
v 106 621
v 107 348
v 108 610
v 109 615
v 110 634
v 111 412
v 112 340
v 113 640
v 114 683
v 115 427
v 116 429
v 117 413
v 118 681
v 119 341
v 120 396
v 121 407
v 122 564
v 123 611
v 124 514
v 125 634
v 126 551
v 127 201
v 128 381
v 129 218
e 1 2
e 1 3
e 1 4
e 1 5
e 1 6
e 1 7
e 1 8
e 1 9
e 1 19
e 1 43
e 1 50
e 1 57
e 1 64
e 1 85
e 1 107
e 1 116
e 1 124
e 2 3
e 2 4
e 2 5
e 2 6
e 2 7
e 2 8
e 2 26
e 2 36
e 2 45
e 2 58
e 2 65
e 2 87
e 2 98
e 2 109
e 3 4
e 3 5
e 3 6
e 3 7
e 3 8
e 3 11
e 3 20
e 3 27
e 3 46
e 3 51
e 3 66
e 3 75
e 3 88
e 3 125
e 4 5
e 4 6
e 4 7
e 4 8
e 4 12
e 4 21
e 4 28
e 4 37
e 4 76
e 4 89
e 4 99
e 4 110
e 5 6
e 5 7
e 5 8
e 5 13
e 5 22
e 5 30
e 5 38
e 5 53
e 5 60
e 5 78
e 5 90
e 5 101
e 5 112
e 5 127
e 6 7
e 6 8
e 6 15
e 6 23
e 6 40
e 6 47
e 6 54
e 6 69
e 6 79
e 6 113
e 7 8
e 7 33
e 7 42
e 7 48
e 7 56
e 7 72
e 7 84
e 7 96
e 7 114
e 7 123
e 8 34
e 8 49
e 8 63
e 8 73
e 8 97
e 8 106
e 8 115
e 9 10
e 9 11
e 9 12
e 9 13
e 9 14
e 9 15
e 9 16
e 9 17
e 9 18
e 9 19
e 9 43
e 9 50
e 9 57
e 9 64
e 9 85
e 9 107
e 9 116
e 9 124
e 10 11
e 10 12
e 10 13
e 10 14
e 10 15
e 10 16
e 10 17
e 10 18
e 10 35
e 10 44
e 10 74
e 10 86
e 10 108
e 11 12
e 11 13
e 11 14
e 11 15
e 11 16
e 11 17
e 11 18
e 11 20
e 11 27
e 11 46
e 11 51
e 11 66
e 11 75
e 11 88
e 11 125
e 12 13
e 12 14
e 12 15
e 12 16
e 12 17
e 12 18
e 12 21
e 12 28
e 12 37
e 12 76
e 12 89
e 12 99
e 12 110
e 13 14
e 13 15
e 13 16
e 13 17
e 13 18
e 13 22
e 13 30
e 13 38
e 13 53
e 13 60
e 13 78
e 13 90
e 13 101
e 13 112
e 13 127
e 14 15
e 14 16
e 14 17
e 14 18
e 14 31
e 14 39
e 14 61
e 14 68
e 14 91
e 14 102
e 14 118
e 14 128
e 15 16
e 15 17
e 15 18
e 15 23
e 15 40
e 15 47
e 15 54
e 15 69
e 15 79
e 15 113
e 16 17
e 16 18
e 16 32
e 16 70
e 16 80
e 16 92
e 16 103
e 16 119
e 17 18
e 17 24
e 17 71
e 17 81
e 17 93
e 17 104
e 17 120
e 17 129
e 18 62
e 18 82
e 18 94
e 18 105
e 18 121
e 19 20
e 19 21
e 19 22
e 19 23
e 19 24
e 19 25
e 19 43
e 19 50
e 19 57
e 19 64
e 19 85
e 19 107
e 19 116
e 19 124
e 20 21
e 20 22
e 20 23
e 20 24
e 20 25
e 20 27
e 20 46
e 20 51
e 20 66
e 20 75
e 20 88
e 20 125
e 21 22
e 21 23
e 21 24
e 21 25
e 21 28
e 21 37
e 21 76
e 21 89
e 21 99
e 21 110
e 22 23
e 22 24
e 22 25
e 22 30
e 22 38
e 22 53
e 22 60
e 22 78
e 22 90
e 22 101
e 22 112
e 22 127
e 23 24
e 23 25
e 23 40
e 23 47
e 23 54
e 23 69
e 23 79
e 23 113
e 24 25
e 24 71
e 24 81
e 24 93
e 24 104
e 24 120
e 24 129
e 25 41
e 25 55
e 25 83
e 25 95
e 25 122
e 26 27
e 26 28
e 26 29
e 26 30
e 26 31
e 26 32
e 26 33
e 26 34
e 26 36
e 26 45
e 26 58
e 26 65
e 26 87
e 26 98
e 26 109
e 27 28
e 27 29
e 27 30
e 27 31
e 27 32
e 27 33
e 27 34
e 27 46
e 27 51
e 27 66
e 27 75
e 27 88
e 27 125
e 28 29
e 28 30
e 28 31
e 28 32
e 28 33
e 28 34
e 28 37
e 28 76
e 28 89
e 28 99
e 28 110
e 29 30
e 29 31
e 29 32
e 29 33
e 29 34
e 29 52
e 29 59
e 29 67
e 29 77
e 29 100
e 29 111
e 29 117
e 29 126
e 30 31
e 30 32
e 30 33
e 30 34
e 30 38
e 30 53
e 30 60
e 30 78
e 30 90
e 30 101
e 30 112
e 30 127
e 31 32
e 31 33
e 31 34
e 31 39
e 31 61
e 31 68
e 31 91
e 31 102
e 31 118
e 31 128
e 32 33
e 32 34
e 32 70
e 32 80
e 32 92
e 32 103
e 32 119
e 33 34
e 33 42
e 33 48
e 33 56
e 33 72
e 33 84
e 33 96
e 33 114
e 33 123
e 34 49
e 34 63
e 34 73
e 34 97
e 34 106
e 34 115
e 35 36
e 35 37
e 35 38
e 35 39
e 35 40
e 35 41
e 35 42
e 35 44
e 35 74
e 35 86
e 35 108
e 36 37
e 36 38
e 36 39
e 36 40
e 36 41
e 36 42
e 36 45
e 36 58
e 36 65
e 36 87
e 36 98
e 36 109
e 37 38
e 37 39
e 37 40
e 37 41
e 37 42
e 37 76
e 37 89
e 37 99
e 37 110
e 38 39
e 38 40
e 38 41
e 38 42
e 38 53
e 38 60
e 38 78
e 38 90
e 38 101
e 38 112
e 38 127
e 39 40
e 39 41
e 39 42
e 39 61
e 39 68
e 39 91
e 39 102
e 39 118
e 39 128
e 40 41
e 40 42
e 40 47
e 40 54
e 40 69
e 40 79
e 40 113
e 41 42
e 41 55
e 41 83
e 41 95
e 41 122
e 42 48
e 42 56
e 42 72
e 42 84
e 42 96
e 42 114
e 42 123
e 43 44
e 43 45
e 43 46
e 43 47
e 43 48
e 43 49
e 43 50
e 43 57
e 43 64
e 43 85
e 43 107
e 43 116
e 43 124
e 44 45
e 44 46
e 44 47
e 44 48
e 44 49
e 44 74
e 44 86
e 44 108
e 45 46
e 45 47
e 45 48
e 45 49
e 45 58
e 45 65
e 45 87
e 45 98
e 45 109
e 46 47
e 46 48
e 46 49
e 46 51
e 46 66
e 46 75
e 46 88
e 46 125
e 47 48
e 47 49
e 47 54
e 47 69
e 47 79
e 47 113
e 48 49
e 48 56
e 48 72
e 48 84
e 48 96
e 48 114
e 48 123
e 49 63
e 49 73
e 49 97
e 49 106
e 49 115
e 50 51
e 50 52
e 50 53
e 50 54
e 50 55
e 50 56
e 50 57
e 50 64
e 50 85
e 50 107
e 50 116
e 50 124
e 51 52
e 51 53
e 51 54
e 51 55
e 51 56
e 51 66
e 51 75
e 51 88
e 51 125
e 52 53
e 52 54
e 52 55
e 52 56
e 52 59
e 52 67
e 52 77
e 52 100
e 52 111
e 52 117
e 52 126
e 53 54
e 53 55
e 53 56
e 53 60
e 53 78
e 53 90
e 53 101
e 53 112
e 53 127
e 54 55
e 54 56
e 54 69
e 54 79
e 54 113
e 55 56
e 55 83
e 55 95
e 55 122
e 56 72
e 56 84
e 56 96
e 56 114
e 56 123
e 57 58
e 57 59
e 57 60
e 57 61
e 57 62
e 57 63
e 57 64
e 57 85
e 57 107
e 57 116
e 57 124
e 58 59
e 58 60
e 58 61
e 58 62
e 58 63
e 58 65
e 58 87
e 58 98
e 58 109
e 59 60
e 59 61
e 59 62
e 59 63
e 59 67
e 59 77
e 59 100
e 59 111
e 59 117
e 59 126
e 60 61
e 60 62
e 60 63
e 60 78
e 60 90
e 60 101
e 60 112
e 60 127
e 61 62
e 61 63
e 61 68
e 61 91
e 61 102
e 61 118
e 61 128
e 62 63
e 62 82
e 62 94
e 62 105
e 62 121
e 63 73
e 63 97
e 63 106
e 63 115
e 64 65
e 64 66
e 64 67
e 64 68
e 64 69
e 64 70
e 64 71
e 64 72
e 64 73
e 64 85
e 64 107
e 64 116
e 64 124
e 65 66
e 65 67
e 65 68
e 65 69
e 65 70
e 65 71
e 65 72
e 65 73
e 65 87
e 65 98
e 65 109
e 66 67
e 66 68
e 66 69
e 66 70
e 66 71
e 66 72
e 66 73
e 66 75
e 66 88
e 66 125
e 67 68
e 67 69
e 67 70
e 67 71
e 67 72
e 67 73
e 67 77
e 67 100
e 67 111
e 67 117
e 67 126
e 68 69
e 68 70
e 68 71
e 68 72
e 68 73
e 68 91
e 68 102
e 68 118
e 68 128
e 69 70
e 69 71
e 69 72
e 69 73
e 69 79
e 69 113
e 70 71
e 70 72
e 70 73
e 70 80
e 70 92
e 70 103
e 70 119
e 71 72
e 71 73
e 71 81
e 71 93
e 71 104
e 71 120
e 71 129
e 72 73
e 72 84
e 72 96
e 72 114
e 72 123
e 73 97
e 73 106
e 73 115
e 74 75
e 74 76
e 74 77
e 74 78
e 74 79
e 74 80
e 74 81
e 74 82
e 74 83
e 74 84
e 74 86
e 74 108
e 75 76
e 75 77
e 75 78
e 75 79
e 75 80
e 75 81
e 75 82
e 75 83
e 75 84
e 75 88
e 75 125
e 76 77
e 76 78
e 76 79
e 76 80
e 76 81
e 76 82
e 76 83
e 76 84
e 76 89
e 76 99
e 76 110
e 77 78
e 77 79
e 77 80
e 77 81
e 77 82
e 77 83
e 77 84
e 77 100
e 77 111
e 77 117
e 77 126
e 78 79
e 78 80
e 78 81
e 78 82
e 78 83
e 78 84
e 78 90
e 78 101
e 78 112
e 78 127
e 79 80
e 79 81
e 79 82
e 79 83
e 79 84
e 79 113
e 80 81
e 80 82
e 80 83
e 80 84
e 80 92
e 80 103
e 80 119
e 81 82
e 81 83
e 81 84
e 81 93
e 81 104
e 81 120
e 81 129
e 82 83
e 82 84
e 82 94
e 82 105
e 82 121
e 83 84
e 83 95
e 83 122
e 84 96
e 84 114
e 84 123
e 85 86
e 85 87
e 85 88
e 85 89
e 85 90
e 85 91
e 85 92
e 85 93
e 85 94
e 85 95
e 85 96
e 85 97
e 85 107
e 85 116
e 85 124
e 86 87
e 86 88
e 86 89
e 86 90
e 86 91
e 86 92
e 86 93
e 86 94
e 86 95
e 86 96
e 86 97
e 86 108
e 87 88
e 87 89
e 87 90
e 87 91
e 87 92
e 87 93
e 87 94
e 87 95
e 87 96
e 87 97
e 87 98
e 87 109
e 88 89
e 88 90
e 88 91
e 88 92
e 88 93
e 88 94
e 88 95
e 88 96
e 88 97
e 88 125
e 89 90
e 89 91
e 89 92
e 89 93
e 89 94
e 89 95
e 89 96
e 89 97
e 89 99
e 89 110
e 90 91
e 90 92
e 90 93
e 90 94
e 90 95
e 90 96
e 90 97
e 90 101
e 90 112
e 90 127
e 91 92
e 91 93
e 91 94
e 91 95
e 91 96
e 91 97
e 91 102
e 91 118
e 91 128
e 92 93
e 92 94
e 92 95
e 92 96
e 92 97
e 92 103
e 92 119
e 93 94
e 93 95
e 93 96
e 93 97
e 93 104
e 93 120
e 93 129
e 94 95
e 94 96
e 94 97
e 94 105
e 94 121
e 95 96
e 95 97
e 95 122
e 96 97
e 96 114
e 96 123
e 97 106
e 97 115
e 98 99
e 98 100
e 98 101
e 98 102
e 98 103
e 98 104
e 98 105
e 98 106
e 98 109
e 99 100
e 99 101
e 99 102
e 99 103
e 99 104
e 99 105
e 99 106
e 99 110
e 100 101
e 100 102
e 100 103
e 100 104
e 100 105
e 100 106
e 100 111
e 100 117
e 100 126
e 101 102
e 101 103
e 101 104
e 101 105
e 101 106
e 101 112
e 101 127
e 102 103
e 102 104
e 102 105
e 102 106
e 102 118
e 102 128
e 103 104
e 103 105
e 103 106
e 103 119
e 104 105
e 104 106
e 104 120
e 104 129
e 105 106
e 105 121
e 106 115
e 107 108
e 107 109
e 107 110
e 107 111
e 107 112
e 107 113
e 107 114
e 107 115
e 107 116
e 107 124
e 108 109
e 108 110
e 108 111
e 108 112
e 108 113
e 108 114
e 108 115
e 109 110
e 109 111
e 109 112
e 109 113
e 109 114
e 109 115
e 110 111
e 110 112
e 110 113
e 110 114
e 110 115
e 111 112
e 111 113
e 111 114
e 111 115
e 111 117
e 111 126
e 112 113
e 112 114
e 112 115
e 112 127
e 113 114
e 113 115
e 114 115
e 114 123
e 116 117
e 116 118
e 116 119
e 116 120
e 116 121
e 116 122
e 116 123
e 116 124
e 117 118
e 117 119
e 117 120
e 117 121
e 117 122
e 117 123
e 117 126
e 118 119
e 118 120
e 118 121
e 118 122
e 118 123
e 118 128
e 119 120
e 119 121
e 119 122
e 119 123
e 120 121
e 120 122
e 120 123
e 120 129
e 121 122
e 121 123
e 122 123
e 124 125
e 124 126
e 124 127
e 124 128
e 124 129
e 125 126
e 125 127
e 125 128
e 125 129
e 126 127
e 126 128
e 126 129
e 127 128
e 127 129
e 128 129
